10J3M/DAT/10J3MNLX-5.dat
10 3
31.2747 5.5924
17.3104 4.1606
28.2637 5.3164
26.2122 5.1198
21.5617 4.6435
24.4278 4.9424
25.0308 5.0031
25.1133 5.0113
27.1087 5.2066
14.776 3.844
16.28