10J3M/SOL/10J3MNLX-5.sol
solution status: optimal solution found
objective value:                      80.359638536247
x#1#3                                               1 	(obj:0)
x#2#3                                               1 	(obj:0)
x#3#2                               0.145964904323427 	(obj:0)
x#3#3                               0.854035095676573 	(obj:0)
x#4#2                                               1 	(obj:0)
x#5#1                               0.920384445259922 	(obj:0)
x#5#2                              0.0796155547400779 	(obj:0)
x#6#2                                               1 	(obj:0)
x#7#1                                               1 	(obj:0)
x#8#1                                               1 	(obj:0)
x#9#1                               0.382551920338714 	(obj:0)
x#9#2                               0.617448079661286 	(obj:0)
x#10#2                              0.483166540753106 	(obj:0)
x#10#3                              0.516807444678737 	(obj:0)
z                                     80.359638536247 	(obj:1)
